regression_itp/log-2023-02-20-10-22-36/itp_inc_theory_clause_issue.smt2.out
unsat
((<= 0 x))
unsat
((<= 20 (* -1 b)))
